p edge 100 2000
e 1 5
e 1 5
e 1 15
e 1 24
e 1 25
e 1 37
e 1 42
e 1 45
e 1 46
e 1 58
e 1 60
e 1 62
e 1 63
e 1 69
e 1 78
e 1 81
e 1 81
e 1 88
e 1 94
e 1 97
e 2 7
e 2 8
e 2 14
e 2 19
e 2 27
e 2 35
e 2 35
e 2 39
e 2 39
e 2 47
e 2 56
e 2 66
e 2 68
e 2 71
e 2 71
e 2 75
e 2 78
e 2 79
e 2 85
e 2 97
e 3 1
e 3 2
e 3 4
e 3 5
e 3 6
e 3 35
e 3 43
e 3 44
e 3 46
e 3 57
e 3 60
e 3 66
e 3 69
e 3 80
e 3 82
e 3 82
e 3 82
e 3 88
e 3 94
e 3 95
e 4 8
e 4 17
e 4 18
e 4 25
e 4 27
e 4 28
e 4 35
e 4 46
e 4 52
e 4 58
e 4 63
e 4 65
e 4 65
e 4 75
e 4 85
e 4 86
e 4 89
e 4 92
e 4 94
e 4 100
e 5 2
e 5 6
e 5 9
e 5 11
e 5 21
e 5 24
e 5 34
e 5 39
e 5 45
e 5 51
e 5 52
e 5 53
e 5 54
e 5 62
e 5 73
e 5 80
e 5 80
e 5 94
e 5 98
e 5 98
e 6 4
e 6 11
e 6 12
e 6 14
e 6 16
e 6 30
e 6 32
e 6 38
e 6 43
e 6 46
e 6 50
e 6 56
e 6 59
e 6 60
e 6 62
e 6 70
e 6 77
e 6 83
e 6 95
e 6 95
e 7 4
e 7 6
e 7 16
e 7 31
e 7 35
e 7 40
e 7 44
e 7 47
e 7 48
e 7 51
e 7 52
e 7 52
e 7 54
e 7 59
e 7 59
e 7 64
e 7 69
e 7 73
e 7 80
e 7 97
e 8 4
e 8 27
e 8 27
e 8 31
e 8 40
e 8 44
e 8 44
e 8 49
e 8 55
e 8 59
e 8 65
e 8 73
e 8 76
e 8 87
e 8 90
e 8 91
e 8 91
e 8 92
e 8 93
e 8 94
e 9 5
e 9 13
e 9 15
e 9 20
e 9 21
e 9 27
e 9 31
e 9 35
e 9 40
e 9 43
e 9 50
e 9 59
e 9 62
e 9 62
e 9 65
e 9 71
e 9 76
e 9 79
e 9 80
e 9 97
e 10 3
e 10 7
e 10 20
e 10 22
e 10 22
e 10 28
e 10 34
e 10 35
e 10 39
e 10 45
e 10 49
e 10 51
e 10 53
e 10 61
e 10 70
e 10 71
e 10 77
e 10 83
e 10 91
e 10 96
e 11 1
e 11 8
e 11 8
e 11 12
e 11 12
e 11 17
e 11 19
e 11 25
e 11 40
e 11 40
e 11 42
e 11 47
e 11 55
e 11 57
e 11 60
e 11 69
e 11 81
e 11 84
e 11 90
e 11 98
e 12 7
e 12 7
e 12 8
e 12 14
e 12 17
e 12 18
e 12 18
e 12 21
e 12 34
e 12 37
e 12 48
e 12 56
e 12 58
e 12 61
e 12 64
e 12 89
e 12 91
e 12 94
e 12 97
e 12 98
e 13 1
e 13 20
e 13 27
e 13 40
e 13 42
e 13 42
e 13 54
e 13 55
e 13 56
e 13 59
e 13 64
e 13 67
e 13 68
e 13 72
e 13 80
e 13 80
e 13 80
e 13 83
e 13 87
e 13 94
e 14 1
e 14 3
e 14 7
e 14 21
e 14 28
e 14 29
e 14 36
e 14 39
e 14 45
e 14 48
e 14 69
e 14 77
e 14 77
e 14 84
e 14 84
e 14 87
e 14 90
e 14 90
e 14 98
e 14 99
e 15 1
e 15 12
e 15 22
e 15 29
e 15 31
e 15 32
e 15 45
e 15 46
e 15 53
e 15 53
e 15 56
e 15 59
e 15 68
e 15 73
e 15 76
e 15 78
e 15 79
e 15 79
e 15 82
e 15 100
e 16 9
e 16 18
e 16 28
e 16 29
e 16 29
e 16 34
e 16 37
e 16 40
e 16 40
e 16 43
e 16 52
e 16 63
e 16 64
e 16 64
e 16 73
e 16 81
e 16 81
e 16 92
e 16 93
e 16 98
e 17 8
e 17 9
e 17 12
e 17 14
e 17 14
e 17 16
e 17 22
e 17 24
e 17 40
e 17 45
e 17 57
e 17 60
e 17 61
e 17 62
e 17 69
e 17 75
e 17 90
e 17 92
e 17 97
e 17 97
e 18 2
e 18 3
e 18 6
e 18 22
e 18 23
e 18 26
e 18 35
e 18 44
e 18 45
e 18 49
e 18 53
e 18 58
e 18 62
e 18 66
e 18 73
e 18 76
e 18 79
e 18 81
e 18 81
e 18 97
e 19 5
e 19 8
e 19 9
e 19 16
e 19 29
e 19 29
e 19 33
e 19 35
e 19 36
e 19 52
e 19 59
e 19 66
e 19 68
e 19 72
e 19 75
e 19 91
e 19 96
e 19 97
e 19 97
e 19 99
e 20 2
e 20 8
e 20 10
e 20 12
e 20 17
e 20 24
e 20 26
e 20 27
e 20 31
e 20 35
e 20 37
e 20 39
e 20 44
e 20 56
e 20 65
e 20 70
e 20 77
e 20 78
e 20 98
e 20 98
e 21 6
e 21 15
e 21 22
e 21 22
e 21 26
e 21 26
e 21 57
e 21 58
e 21 65
e 21 66
e 21 67
e 21 67
e 21 74
e 21 78
e 21 81
e 21 85
e 21 87
e 21 92
e 21 93
e 21 95
e 22 5
e 22 13
e 22 14
e 22 23
e 22 26
e 22 31
e 22 38
e 22 39
e 22 47
e 22 50
e 22 54
e 22 59
e 22 61
e 22 62
e 22 64
e 22 79
e 22 80
e 22 88
e 22 90
e 22 94
e 23 6
e 23 11
e 23 13
e 23 14
e 23 17
e 23 27
e 23 30
e 23 37
e 23 39
e 23 49
e 23 50
e 23 55
e 23 59
e 23 60
e 23 68
e 23 75
e 23 86
e 23 90
e 23 92
e 23 96
e 24 3
e 24 5
e 24 7
e 24 8
e 24 8
e 24 19
e 24 32
e 24 39
e 24 44
e 24 45
e 24 46
e 24 49
e 24 53
e 24 59
e 24 63
e 24 68
e 24 70
e 24 71
e 24 87
e 24 97
e 25 3
e 25 10
e 25 26
e 25 26
e 25 31
e 25 37
e 25 40
e 25 51
e 25 57
e 25 58
e 25 60
e 25 61
e 25 76
e 25 78
e 25 81
e 25 88
e 25 92
e 25 92
e 25 97
e 25 99
e 26 4
e 26 5
e 26 11
e 26 20
e 26 33
e 26 34
e 26 39
e 26 40
e 26 44
e 26 51
e 26 53
e 26 54
e 26 65
e 26 82
e 26 83
e 26 89
e 26 95
e 26 95
e 26 100
e 26 100
e 27 11
e 27 17
e 27 20
e 27 22
e 27 23
e 27 29
e 27 33
e 27 37
e 27 46
e 27 60
e 27 64
e 27 77
e 27 83
e 27 85
e 27 87
e 27 93
e 27 94
e 27 95
e 27 97
e 27 97
e 28 5
e 28 6
e 28 12
e 28 23
e 28 30
e 28 32
e 28 43
e 28 44
e 28 50
e 28 51
e 28 52
e 28 61
e 28 77
e 28 77
e 28 79
e 28 79
e 28 94
e 28 95
e 28 98
e 28 100
e 29 3
e 29 7
e 29 13
e 29 16
e 29 16
e 29 19
e 29 25
e 29 30
e 29 30
e 29 33
e 29 39
e 29 41
e 29 43
e 29 71
e 29 76
e 29 82
e 29 89
e 29 91
e 29 94
e 29 97
e 30 1
e 30 18
e 30 18
e 30 33
e 30 37
e 30 39
e 30 41
e 30 62
e 30 64
e 30 65
e 30 69
e 30 69
e 30 72
e 30 75
e 30 76
e 30 76
e 30 78
e 30 93
e 30 95
e 30 98
e 31 3
e 31 6
e 31 12
e 31 14
e 31 20
e 31 36
e 31 47
e 31 52
e 31 62
e 31 62
e 31 63
e 31 64
e 31 74
e 31 78
e 31 82
e 31 84
e 31 87
e 31 91
e 31 93
e 31 99
e 32 5
e 32 5
e 32 9
e 32 9
e 32 17
e 32 21
e 32 24
e 32 40
e 32 43
e 32 49
e 32 53
e 32 54
e 32 54
e 32 61
e 32 76
e 32 80
e 32 83
e 32 88
e 32 92
e 32 92
e 33 4
e 33 9
e 33 17
e 33 32
e 33 38
e 33 38
e 33 41
e 33 42
e 33 44
e 33 46
e 33 48
e 33 52
e 33 60
e 33 74
e 33 79
e 33 85
e 33 87
e 33 96
e 33 97
e 33 98
e 34 1
e 34 5
e 34 20
e 34 22
e 34 24
e 34 28
e 34 28
e 34 42
e 34 42
e 34 47
e 34 48
e 34 50
e 34 54
e 34 66
e 34 75
e 34 81
e 34 81
e 34 88
e 34 88
e 34 100
e 35 4
e 35 5
e 35 12
e 35 15
e 35 16
e 35 21
e 35 23
e 35 26
e 35 27
e 35 41
e 35 46
e 35 47
e 35 57
e 35 61
e 35 78
e 35 79
e 35 84
e 35 89
e 35 96
e 35 96
e 36 6
e 36 9
e 36 16
e 36 21
e 36 23
e 36 31
e 36 35
e 36 37
e 36 37
e 36 39
e 36 53
e 36 62
e 36 62
e 36 62
e 36 70
e 36 84
e 36 85
e 36 87
e 36 93
e 36 95
e 37 4
e 37 8
e 37 9
e 37 13
e 37 15
e 37 18
e 37 32
e 37 32
e 37 40
e 37 42
e 37 45
e 37 50
e 37 50
e 37 65
e 37 77
e 37 77
e 37 77
e 37 79
e 37 89
e 37 96
e 38 11
e 38 11
e 38 27
e 38 35
e 38 37
e 38 39
e 38 45
e 38 49
e 38 50
e 38 56
e 38 58
e 38 59
e 38 66
e 38 68
e 38 73
e 38 77
e 38 85
e 38 86
e 38 88
e 38 95
e 39 3
e 39 4
e 39 5
e 39 6
e 39 9
e 39 9
e 39 13
e 39 14
e 39 15
e 39 31
e 39 33
e 39 34
e 39 43
e 39 45
e 39 53
e 39 54
e 39 57
e 39 82
e 39 87
e 39 98
e 40 14
e 40 16
e 40 18
e 40 21
e 40 23
e 40 25
e 40 31
e 40 33
e 40 41
e 40 51
e 40 63
e 40 68
e 40 69
e 40 71
e 40 79
e 40 87
e 40 87
e 40 96
e 40 97
e 40 100
e 41 3
e 41 10
e 41 23
e 41 26
e 41 36
e 41 40
e 41 43
e 41 44
e 41 50
e 41 52
e 41 56
e 41 61
e 41 63
e 41 69
e 41 71
e 41 71
e 41 82
e 41 83
e 41 85
e 41 96
e 42 1
e 42 6
e 42 14
e 42 24
e 42 28
e 42 32
e 42 34
e 42 36
e 42 41
e 42 41
e 42 56
e 42 67
e 42 69
e 42 76
e 42 78
e 42 81
e 42 83
e 42 84
e 42 88
e 42 91
e 43 5
e 43 6
e 43 13
e 43 13
e 43 14
e 43 18
e 43 20
e 43 23
e 43 25
e 43 28
e 43 32
e 43 45
e 43 53
e 43 67
e 43 70
e 43 78
e 43 79
e 43 80
e 43 86
e 43 99
e 44 6
e 44 12
e 44 19
e 44 23
e 44 25
e 44 30
e 44 33
e 44 43
e 44 49
e 44 51
e 44 53
e 44 54
e 44 55
e 44 62
e 44 71
e 44 76
e 44 80
e 44 89
e 44 92
e 44 95
e 45 1
e 45 11
e 45 14
e 45 18
e 45 21
e 45 29
e 45 31
e 45 34
e 45 35
e 45 38
e 45 43
e 45 48
e 45 60
e 45 61
e 45 65
e 45 67
e 45 80
e 45 95
e 45 97
e 45 98
e 46 6
e 46 22
e 46 34
e 46 35
e 46 37
e 46 40
e 46 42
e 46 50
e 46 54
e 46 59
e 46 61
e 46 64
e 46 68
e 46 84
e 46 86
e 46 88
e 46 89
e 46 89
e 46 90
e 46 93
e 47 15
e 47 20
e 47 24
e 47 31
e 47 31
e 47 49
e 47 50
e 47 50
e 47 53
e 47 55
e 47 61
e 47 69
e 47 73
e 47 74
e 47 78
e 47 84
e 47 84
e 47 90
e 47 91
e 47 97
e 48 2
e 48 7
e 48 31
e 48 32
e 48 43
e 48 44
e 48 54
e 48 56
e 48 63
e 48 64
e 48 65
e 48 78
e 48 82
e 48 83
e 48 89
e 48 90
e 48 91
e 48 96
e 48 97
e 48 100
e 49 3
e 49 4
e 49 9
e 49 10
e 49 11
e 49 20
e 49 27
e 49 41
e 49 44
e 49 45
e 49 51
e 49 53
e 49 74
e 49 74
e 49 78
e 49 88
e 49 90
e 49 92
e 49 95
e 49 99
e 50 4
e 50 8
e 50 19
e 50 26
e 50 29
e 50 39
e 50 42
e 50 44
e 50 49
e 50 54
e 50 65
e 50 71
e 50 72
e 50 75
e 50 76
e 50 79
e 50 82
e 50 85
e 50 88
e 50 97
e 51 1
e 51 2
e 51 3
e 51 4
e 51 4
e 51 13
e 51 25
e 51 32
e 51 36
e 51 40
e 51 44
e 51 52
e 51 53
e 51 57
e 51 58
e 51 68
e 51 68
e 51 75
e 51 80
e 51 100
e 52 3
e 52 6
e 52 15
e 52 15
e 52 17
e 52 26
e 52 39
e 52 48
e 52 50
e 52 53
e 52 54
e 52 55
e 52 56
e 52 57
e 52 61
e 52 64
e 52 71
e 52 72
e 52 82
e 52 96
e 53 3
e 53 14
e 53 18
e 53 18
e 53 19
e 53 23
e 53 23
e 53 26
e 53 27
e 53 30
e 53 37
e 53 42
e 53 49
e 53 58
e 53 61
e 53 72
e 53 87
e 53 89
e 53 92
e 53 93
e 54 4
e 54 5
e 54 10
e 54 11
e 54 15
e 54 21
e 54 22
e 54 25
e 54 28
e 54 32
e 54 42
e 54 46
e 54 47
e 54 57
e 54 69
e 54 82
e 54 84
e 54 84
e 54 91
e 54 96
e 55 9
e 55 9
e 55 19
e 55 21
e 55 26
e 55 29
e 55 30
e 55 32
e 55 40
e 55 40
e 55 44
e 55 53
e 55 54
e 55 58
e 55 61
e 55 62
e 55 73
e 55 85
e 55 86
e 55 87
e 56 4
e 56 4
e 56 9
e 56 11
e 56 11
e 56 13
e 56 31
e 56 31
e 56 31
e 56 51
e 56 52
e 56 54
e 56 58
e 56 63
e 56 71
e 56 77
e 56 81
e 56 92
e 56 95
e 56 96
e 57 8
e 57 15
e 57 20
e 57 23
e 57 25
e 57 29
e 57 34
e 57 38
e 57 44
e 57 51
e 57 64
e 57 64
e 57 73
e 57 75
e 57 78
e 57 79
e 57 83
e 57 83
e 57 86
e 57 88
e 58 14
e 58 17
e 58 24
e 58 25
e 58 26
e 58 28
e 58 38
e 58 39
e 58 47
e 58 48
e 58 55
e 58 59
e 58 64
e 58 71
e 58 76
e 58 81
e 58 82
e 58 89
e 58 90
e 58 92
e 59 3
e 59 4
e 59 9
e 59 9
e 59 9
e 59 13
e 59 24
e 59 28
e 59 38
e 59 55
e 59 57
e 59 60
e 59 61
e 59 69
e 59 75
e 59 79
e 59 83
e 59 87
e 59 88
e 59 93
e 60 2
e 60 3
e 60 3
e 60 3
e 60 8
e 60 8
e 60 19
e 60 39
e 60 42
e 60 44
e 60 45
e 60 49
e 60 52
e 60 59
e 60 71
e 60 83
e 60 83
e 60 83
e 60 97
e 60 99
e 61 5
e 61 18
e 61 20
e 61 29
e 61 29
e 61 34
e 61 36
e 61 36
e 61 37
e 61 37
e 61 38
e 61 41
e 61 43
e 61 79
e 61 81
e 61 82
e 61 84
e 61 85
e 61 94
e 61 96
e 62 1
e 62 3
e 62 5
e 62 9
e 62 23
e 62 23
e 62 33
e 62 36
e 62 37
e 62 49
e 62 49
e 62 56
e 62 64
e 62 73
e 62 79
e 62 79
e 62 82
e 62 97
e 62 98
e 62 99
e 63 1
e 63 4
e 63 7
e 63 9
e 63 10
e 63 10
e 63 16
e 63 22
e 63 25
e 63 29
e 63 33
e 63 35
e 63 38
e 63 52
e 63 59
e 63 67
e 63 73
e 63 83
e 63 86
e 63 95
e 64 3
e 64 4
e 64 4
e 64 6
e 64 7
e 64 19
e 64 28
e 64 32
e 64 34
e 64 38
e 64 41
e 64 42
e 64 44
e 64 60
e 64 63
e 64 69
e 64 71
e 64 84
e 64 86
e 64 98
e 65 4
e 65 6
e 65 7
e 65 9
e 65 10
e 65 10
e 65 15
e 65 25
e 65 29
e 65 32
e 65 42
e 65 49
e 65 52
e 65 66
e 65 68
e 65 72
e 65 76
e 65 77
e 65 91
e 65 99
e 66 1
e 66 10
e 66 12
e 66 12
e 66 16
e 66 36
e 66 38
e 66 42
e 66 44
e 66 47
e 66 48
e 66 58
e 66 62
e 66 71
e 66 78
e 66 81
e 66 85
e 66 90
e 66 91
e 66 93
e 67 9
e 67 9
e 67 15
e 67 17
e 67 17
e 67 22
e 67 24
e 67 35
e 67 38
e 67 44
e 67 50
e 67 50
e 67 54
e 67 55
e 67 58
e 67 64
e 67 64
e 67 66
e 67 66
e 67 97
e 68 4
e 68 7
e 68 8
e 68 9
e 68 10
e 68 23
e 68 25
e 68 31
e 68 37
e 68 39
e 68 45
e 68 48
e 68 53
e 68 62
e 68 62
e 68 82
e 68 84
e 68 85
e 68 94
e 68 96
e 69 5
e 69 5
e 69 13
e 69 24
e 69 43
e 69 61
e 69 62
e 69 63
e 69 67
e 69 70
e 69 71
e 69 72
e 69 78
e 69 80
e 69 81
e 69 86
e 69 94
e 69 96
e 69 97
e 69 100
e 70 5
e 70 10
e 70 17
e 70 21
e 70 24
e 70 25
e 70 30
e 70 32
e 70 34
e 70 41
e 70 53
e 70 60
e 70 61
e 70 65
e 70 68
e 70 71
e 70 85
e 70 89
e 70 89
e 70 96
e 71 6
e 71 9
e 71 11
e 71 31
e 71 32
e 71 36
e 71 36
e 71 40
e 71 55
e 71 60
e 71 62
e 71 67
e 71 68
e 71 72
e 71 80
e 71 81
e 71 84
e 71 88
e 71 95
e 71 96
e 72 4
e 72 5
e 72 11
e 72 12
e 72 21
e 72 24
e 72 27
e 72 33
e 72 37
e 72 42
e 72 57
e 72 59
e 72 60
e 72 60
e 72 65
e 72 65
e 72 73
e 72 79
e 72 86
e 72 99
e 73 2
e 73 14
e 73 15
e 73 30
e 73 30
e 73 33
e 73 36
e 73 40
e 73 41
e 73 54
e 73 56
e 73 64
e 73 68
e 73 76
e 73 77
e 73 77
e 73 91
e 73 93
e 73 98
e 73 100
e 74 2
e 74 13
e 74 27
e 74 33
e 74 34
e 74 34
e 74 40
e 74 42
e 74 43
e 74 47
e 74 47
e 74 53
e 74 57
e 74 58
e 74 62
e 74 63
e 74 73
e 74 92
e 74 94
e 74 99
e 75 1
e 75 1
e 75 14
e 75 16
e 75 17
e 75 23
e 75 23
e 75 33
e 75 36
e 75 41
e 75 49
e 75 55
e 75 70
e 75 73
e 75 77
e 75 83
e 75 84
e 75 84
e 75 94
e 75 96
e 76 5
e 76 7
e 76 7
e 76 7
e 76 14
e 76 33
e 76 34
e 76 35
e 76 35
e 76 42
e 76 45
e 76 46
e 76 50
e 76 52
e 76 60
e 76 62
e 76 91
e 76 92
e 76 94
e 76 96
e 77 2
e 77 6
e 77 16
e 77 21
e 77 21
e 77 22
e 77 29
e 77 29
e 77 30
e 77 35
e 77 38
e 77 49
e 77 56
e 77 63
e 77 80
e 77 86
e 77 88
e 77 91
e 77 96
e 77 97
e 78 4
e 78 14
e 78 20
e 78 20
e 78 22
e 78 27
e 78 33
e 78 35
e 78 41
e 78 44
e 78 45
e 78 46
e 78 48
e 78 63
e 78 69
e 78 73
e 78 73
e 78 75
e 78 83
e 78 94
e 79 4
e 79 6
e 79 12
e 79 12
e 79 13
e 79 15
e 79 17
e 79 20
e 79 34
e 79 40
e 79 41
e 79 45
e 79 46
e 79 48
e 79 49
e 79 57
e 79 78
e 79 83
e 79 87
e 79 96
e 80 1
e 80 4
e 80 5
e 80 9
e 80 15
e 80 28
e 80 32
e 80 34
e 80 36
e 80 47
e 80 49
e 80 60
e 80 60
e 80 67
e 80 91
e 80 93
e 80 94
e 80 94
e 80 96
e 80 97
e 81 3
e 81 3
e 81 6
e 81 11
e 81 12
e 81 16
e 81 20
e 81 27
e 81 30
e 81 31
e 81 39
e 81 50
e 81 51
e 81 61
e 81 64
e 81 66
e 81 76
e 81 94
e 81 94
e 81 100
e 82 14
e 82 19
e 82 35
e 82 39
e 82 45
e 82 46
e 82 52
e 82 55
e 82 58
e 82 62
e 82 67
e 82 73
e 82 73
e 82 76
e 82 84
e 82 85
e 82 87
e 82 90
e 82 92
e 82 94
e 83 3
e 83 4
e 83 5
e 83 12
e 83 25
e 83 26
e 83 27
e 83 32
e 83 36
e 83 39
e 83 46
e 83 60
e 83 74
e 83 76
e 83 77
e 83 85
e 83 87
e 83 90
e 83 94
e 83 96
e 84 9
e 84 13
e 84 15
e 84 16
e 84 16
e 84 17
e 84 33
e 84 34
e 84 36
e 84 36
e 84 37
e 84 40
e 84 41
e 84 67
e 84 72
e 84 79
e 84 91
e 84 92
e 84 98
e 84 99
e 85 7
e 85 10
e 85 23
e 85 25
e 85 37
e 85 41
e 85 44
e 85 44
e 85 47
e 85 49
e 85 50
e 85 55
e 85 56
e 85 57
e 85 60
e 85 66
e 85 80
e 85 83
e 85 84
e 85 93
e 86 5
e 86 6
e 86 10
e 86 12
e 86 21
e 86 24
e 86 43
e 86 47
e 86 50
e 86 54
e 86 56
e 86 62
e 86 64
e 86 64
e 86 65
e 86 67
e 86 72
e 86 80
e 86 83
e 86 98
e 87 1
e 87 18
e 87 27
e 87 43
e 87 50
e 87 53
e 87 57
e 87 64
e 87 65
e 87 66
e 87 66
e 87 74
e 87 78
e 87 82
e 87 84
e 87 86
e 87 90
e 87 93
e 87 93
e 87 97
e 88 16
e 88 16
e 88 24
e 88 25
e 88 32
e 88 33
e 88 34
e 88 40
e 88 44
e 88 53
e 88 59
e 88 63
e 88 76
e 88 78
e 88 80
e 88 80
e 88 84
e 88 89
e 88 93
e 88 96
e 89 12
e 89 13
e 89 13
e 89 20
e 89 25
e 89 30
e 89 30
e 89 31
e 89 38
e 89 38
e 89 63
e 89 64
e 89 64
e 89 68
e 89 68
e 89 70
e 89 70
e 89 84
e 89 90
e 89 97
e 90 7
e 90 8
e 90 11
e 90 11
e 90 14
e 90 17
e 90 25
e 90 27
e 90 36
e 90 38
e 90 41
e 90 42
e 90 44
e 90 55
e 90 57
e 90 65
e 90 80
e 90 84
e 90 87
e 90 94
e 91 11
e 91 11
e 91 12
e 91 18
e 91 30
e 91 31
e 91 34
e 91 37
e 91 51
e 91 52
e 91 53
e 91 58
e 91 59
e 91 66
e 91 75
e 91 75
e 91 83
e 91 88
e 91 95
e 91 96
e 92 6
e 92 11
e 92 17
e 92 23
e 92 25
e 92 25
e 92 27
e 92 32
e 92 37
e 92 39
e 92 42
e 92 44
e 92 46
e 92 58
e 92 69
e 92 79
e 92 82
e 92 95
e 92 98
e 92 100
e 93 1
e 93 2
e 93 7
e 93 7
e 93 17
e 93 19
e 93 19
e 93 28
e 93 37
e 93 39
e 93 46
e 93 49
e 93 57
e 93 57
e 93 57
e 93 60
e 93 61
e 93 69
e 93 88
e 93 91
e 94 15
e 94 16
e 94 16
e 94 17
e 94 22
e 94 28
e 94 33
e 94 37
e 94 41
e 94 55
e 94 58
e 94 64
e 94 73
e 94 76
e 94 82
e 94 82
e 94 87
e 94 88
e 94 99
e 94 99
e 95 9
e 95 11
e 95 21
e 95 23
e 95 32
e 95 47
e 95 54
e 95 57
e 95 62
e 95 67
e 95 67
e 95 69
e 95 69
e 95 71
e 95 81
e 95 87
e 95 90
e 95 92
e 95 96
e 95 100
e 96 4
e 96 5
e 96 7
e 96 13
e 96 32
e 96 32
e 96 44
e 96 50
e 96 52
e 96 53
e 96 56
e 96 58
e 96 63
e 96 64
e 96 72
e 96 74
e 96 76
e 96 90
e 96 98
e 96 98
e 97 1
e 97 5
e 97 6
e 97 9
e 97 10
e 97 12
e 97 15
e 97 20
e 97 23
e 97 46
e 97 54
e 97 57
e 97 59
e 97 61
e 97 62
e 97 67
e 97 74
e 97 83
e 97 88
e 97 96
e 98 1
e 98 3
e 98 5
e 98 8
e 98 15
e 98 16
e 98 19
e 98 34
e 98 35
e 98 40
e 98 45
e 98 46
e 98 49
e 98 54
e 98 63
e 98 64
e 98 79
e 98 84
e 98 85
e 98 100
e 99 5
e 99 13
e 99 13
e 99 18
e 99 18
e 99 21
e 99 24
e 99 27
e 99 35
e 99 46
e 99 52
e 99 58
e 99 61
e 99 66
e 99 74
e 99 77
e 99 82
e 99 90
e 99 96
e 99 97
e 100 3
e 100 14
e 100 16
e 100 24
e 100 27
e 100 27
e 100 31
e 100 35
e 100 39
e 100 49
e 100 62
e 100 74
e 100 75
e 100 78
e 100 84
e 100 88
e 100 88
e 100 91
e 100 92
e 100 93
